
Gurobi 9.1.2 (linux64, gurobi_cl) logging started Fri Jul 30 13:52:31 2021

Using license file /opt/gurobi/gurobi.lic
Set parameter TimeLimit to value 600
Set parameter LogFile to value 912-Presolve1-glass4-1.log
Set parameter Presolve to value 1
Set parameter Seed to value 1

Gurobi Optimizer version 9.1.2 build v9.1.2rc0 (linux64)
Copyright (c) 2021, Gurobi Optimization, LLC

Read MPS format model from file /nfs/models/mip/glass4.mps.bz2
Reading time = 0.00 seconds
glass4: 396 rows, 322 columns, 1815 nonzeros
Thread count: 4 physical cores, 8 logical processors, using up to 8 threads
Optimize a model with 396 rows, 322 columns and 1815 nonzeros
Model fingerprint: 0x0a9d9037
Variable types: 20 continuous, 302 integer (0 binary)
Coefficient statistics:
  Matrix range     [1e+00, 8e+06]
  Objective range  [1e+00, 1e+06]
  Bounds range     [1e+00, 8e+02]
  RHS range        [1e+00, 8e+06]
Presolve removed 4 rows and 6 columns
Presolve time: 0.00s
Presolved: 392 rows, 316 columns, 1811 nonzeros
Variable types: 19 continuous, 297 integer (297 binary)
Found heuristic solution: objective 3.133356e+09

Root relaxation: objective 8.000024e+08, 72 iterations, 0.00 seconds

    Nodes    |    Current Node    |     Objective Bounds      |     Work
 Expl Unexpl |  Obj  Depth IntInf | Incumbent    BestBd   Gap | It/Node Time

     0     0 8.0000e+08    0   72 3.1334e+09 8.0000e+08  74.5%     -    0s
H    0     0                    2.200018e+09 8.0000e+08  63.6%     -    0s
H    0     0                    2.100019e+09 8.0000e+08  61.9%     -    0s
     0     0 8.0000e+08    0   72 2.1000e+09 8.0000e+08  61.9%     -    0s
     0     0 8.0000e+08    0   80 2.1000e+09 8.0000e+08  61.9%     -    0s
     0     0 8.0000e+08    0   79 2.1000e+09 8.0000e+08  61.9%     -    0s
H    0     2                    1.950017e+09 8.0000e+08  59.0%     -    0s
     0     2 8.0000e+08    0   77 1.9500e+09 8.0000e+08  59.0%     -    0s
H  751   698                    1.900018e+09 8.0000e+08  57.9%   7.2    0s
H 1317  1109                    1.900018e+09 8.0000e+08  57.9%   6.6    0s
H 1324  1059                    1.880018e+09 8.0000e+08  57.4%   6.6    0s
H 1325  1013                    1.850017e+09 8.0000e+08  56.8%   6.6    0s
H 1516  1066                    1.830018e+09 8.0000e+08  56.3%   6.5    0s
* 7505  5629             125    1.800017e+09 8.0000e+08  55.6%   3.9    0s
* 7506  5628             125    1.800017e+09 8.0000e+08  55.6%   3.9    0s
H 8804  5323                    1.766683e+09 8.0000e+08  54.7%   3.8    0s
H 8806  5122                    1.700016e+09 8.0000e+08  52.9%   3.8    0s
*12818  7593              87    1.700016e+09 8.0000e+08  52.9%   3.7    1s
*22715 13665              91    1.700015e+09 8.0000e+08  52.9%   3.6    1s
H29814 16996                    1.700015e+09 8.1538e+08  52.0%   3.6    4s
H29816 16148                    1.700014e+09 8.1538e+08  52.0%   3.6    4s
 29836 16163 9.0001e+08   40  120 1.7000e+09 8.1870e+08  51.8%   3.7    5s
H29845 15360                    1.700013e+09 8.1870e+08  51.8%   3.7    5s
*30482 14940             156    1.666681e+09 9.0000e+08  46.0%   4.1    9s
H33368 15576                    1.500012e+09 9.0001e+08  40.0%   4.4    9s
 38344 16306 9.0001e+08  121   51 1.5000e+09 9.0001e+08  40.0%   5.0   10s
H53016 16886                    1.500012e+09 9.0001e+08  40.0%   5.6   11s
 113996 35844 infeasible  130      1.5000e+09 1.0000e+09  33.3%   6.1   15s
*156558 32733             138    1.433349e+09 1.1000e+09  23.3%   6.3   18s
H156694 31026                    1.400015e+09 1.1000e+09  21.4%   6.3   18s
H157513 20902                    1.366682e+09 1.1000e+09  19.5%   6.3   18s
*157911  8959             140    1.200013e+09 1.1000e+09  8.33%   6.3   18s

Cutting planes:
  Gomory: 13
  Implied bound: 5
  MIR: 20
  Flow cover: 20
  RLT: 4
  Relax-and-lift: 11

Explored 162948 nodes (1005202 simplex iterations) in 18.67 seconds
Thread count was 8 (of 8 available processors)

Solution count 10: 1.20001e+09 1.36668e+09 1.40002e+09 ... 1.70002e+09

Optimal solution found (tolerance 1.00e-04)
Best objective 1.200012600000e+09, best bound 1.200003400000e+09, gap 0.0008%
